Route #1: 148 169 73 153 180 83 20 30 170 135 109 12 110 54 100 182 76 108 134 188 177 97 35 28 94 149 33 192 36 190 106 104 2 63 82 3 4 165 87 113 25 70 163
Route #2: 99 181 78 151 45 22 8 124 156 7 24 136 187 21 68 114 13 32 27 40 6 193 159 146 127 44 197 167 178 48 101 71 185 191 184 119 42 143 125 77 92 61 115
Route #3: 80 18 67 96 196 186 69 75 60 102 145 200 112 122 194 128 95 107 38 138 55 168
Route #4: 111 144 34 74 158 131 52 62 179 162 117 137 81 175 172 51 1 59 37 140 139 29 155 15 195 132 31 160 147 88 103 9 129 43 152 118 19 65 120 49 72 199 39 56 116 47 41 23
Route #5: 164 53 154 174 89 16 133 17 79 126 66 64 142 91 85 14 176 98 189 121 46 105 93 198 130 10 123 11 161 141 84 50 26 90 157 166 58 150 173 5 57 86 183 171
Cost 1665.580640